 &input
   fildyn='si.dyn', zasr='simple', flfrc='q2r888.fc'
 /
