Si 
   1.0
    15.2999999999999989   15.2999999999999989    0.0000000000000000
     0.0000000000000000   15.2999999999999989   15.2999999999999989
    15.2999999999999989    0.0000000000000000   15.2999999999999989
  54
Direct
  0.0004621612948932  0.0000000000000000  0.0000000000000000
  0.3333333333333333  0.0000000000000000  0.0000000000000000
  0.6666666666666666  0.0000000000000000  0.0000000000000000
  0.0000000000000000  0.3333333333333333  0.0000000000000000
  0.3333333333333334  0.3333333333333333  0.0000000000000000
  0.6666666666666666  0.3333333333333334 -0.0000000000000000
  0.0000000000000000  0.6666666666666666  0.0000000000000000
  0.3333333333333333  0.6666666666666667  1.0000000000000000
  0.6666666666666667  0.6666666666666666  0.0000000000000000
  0.0000000000000000  0.0000000000000000  0.3333333333333333
  0.3333333333333334  0.0000000000000000  0.3333333333333333
  0.6666666666666666 -0.0000000000000000  0.3333333333333334
  0.0000000000000000  0.3333333333333333  0.3333333333333333
  0.3333333333333333  0.3333333333333333  0.3333333333333333
  0.6666666666666667  0.3333333333333333  0.3333333333333333
  0.0000000000000000  0.6666666666666666  0.3333333333333334
  0.3333333333333333  0.6666666666666667  0.3333333333333333
  0.6666666666666665  0.6666666666666666  0.3333333333333334
  0.0000000000000000  0.0000000000000000  0.6666666666666666
  0.3333333333333333  1.0000000000000000  0.6666666666666667
  0.6666666666666667  0.0000000000000000  0.6666666666666666
  0.0000000000000000  0.3333333333333334  0.6666666666666666
  0.3333333333333333  0.3333333333333333  0.6666666666666667
  0.6666666666666665  0.3333333333333334  0.6666666666666666
  0.0000000000000000  0.6666666666666666  0.6666666666666666
  0.3333333333333334  0.6666666666666666  0.6666666666666666
  0.6666666666666666  0.6666666666666666  0.6666666666666666
  0.0833333333333333  0.0833333333333333  0.0833333333333333
  0.4166666666666667  0.0833333333333333  0.0833333333333333
  0.7500000000000000  0.0833333333333333  0.0833333333333333
  0.0833333333333333  0.4166666666666667  0.0833333333333333
  0.4166666666666667  0.4166666666666667  0.0833333333333333
  0.7500000000000000  0.4166666666666667  0.0833333333333333
  0.0833333333333333  0.7500000000000000  0.0833333333333333
  0.4166666666666667  0.7500000000000000  0.0833333333333333
  0.7500000000000000  0.7500000000000000  0.0833333333333334
  0.0833333333333333  0.0833333333333333  0.4166666666666667
  0.4166666666666667  0.0833333333333333  0.4166666666666667
  0.7500000000000000  0.0833333333333333  0.4166666666666667
  0.0833333333333333  0.4166666666666667  0.4166666666666667
  0.4166666666666667  0.4166666666666667  0.4166666666666667
  0.7500000000000000  0.4166666666666667  0.4166666666666667
  0.0833333333333334  0.7500000000000000  0.4166666666666667
  0.4166666666666666  0.7500000000000000  0.4166666666666667
  0.7500000000000001  0.7500000000000000  0.4166666666666667
  0.0833333333333333  0.0833333333333333  0.7500000000000000
  0.4166666666666667  0.0833333333333333  0.7500000000000000
  0.7500000000000000  0.0833333333333334  0.7500000000000000
  0.0833333333333334  0.4166666666666667  0.7500000000000000
  0.4166666666666666  0.4166666666666667  0.7500000000000000
  0.7500000000000001  0.4166666666666667  0.7500000000000000
  0.0833333333333334  0.7500000000000000  0.7500000000000000
  0.4166666666666667  0.7500000000000000  0.7500000000000000
  0.7500000000000000  0.7500000000000000  0.7500000000000000
