Si
   1.00000000000000
     5.1000000000000000    5.1000000000000000    0.0000000000000000
     0.0000000000000000    5.1000000000000000    5.1000000000000000
     5.1000000000000000    0.0000000000000000    5.1000000000000000
 2
Direct
  0.0000000000000000  0.0000000000000000  0.0000000000000000
  0.2500000000000000  0.2500000000000000  0.2500000000000000
