Si 
   1.0
    15.2999999999999989   15.2999999999999989    0.0000000000000000
     0.0000000000000000   15.2999999999999989   15.2999999999999989
    15.2999999999999989    0.0000000000000000   15.2999999999999989
  54
Direct
  0.0000000000000000  0.0000000000000000  0.0000000000000000
  0.3333333333333333  0.0000000000000000  0.0000000000000000
  0.6666666666666666  0.0000000000000000  0.0000000000000000
  0.0000000000000000  0.3333333333333333  0.0000000000000000
  0.3333333333333333  0.3333333333333333  0.0000000000000000
  0.6666666666666666  0.3333333333333333  0.0000000000000000
  0.0000000000000000  0.6666666666666666  0.0000000000000000
  0.3333333333333333  0.6666666666666666  0.0000000000000000
  0.6666666666666666  0.6666666666666666  0.0000000000000000
  0.0000000000000000  0.0000000000000000  0.3333333333333333
  0.3333333333333333  0.0000000000000000  0.3333333333333333
  0.6666666666666666  0.0000000000000000  0.3333333333333333
  0.0000000000000000  0.3333333333333333  0.3333333333333333
  0.3333333333333333  0.3333333333333333  0.3333333333333333
  0.6666666666666666  0.3333333333333333  0.3333333333333333
  0.0000000000000000  0.6666666666666666  0.3333333333333333
  0.3333333333333333  0.6666666666666666  0.3333333333333333
  0.6666666666666666  0.6666666666666666  0.3333333333333333
  0.0000000000000000  0.0000000000000000  0.6666666666666666
  0.3333333333333333  0.0000000000000000  0.6666666666666666
  0.6666666666666666  0.0000000000000000  0.6666666666666666
  0.0000000000000000  0.3333333333333333  0.6666666666666666
  0.3333333333333333  0.3333333333333333  0.6666666666666666
  0.6666666666666666  0.3333333333333333  0.6666666666666666
  0.0000000000000000  0.6666666666666666  0.6666666666666666
  0.3333333333333333  0.6666666666666666  0.6666666666666666
  0.6666666666666666  0.6666666666666666  0.6666666666666666
  0.0833333333333333  0.0833333333333333  0.0833333333333333
  0.4166666666666667  0.0833333333333333  0.0833333333333333
  0.7500000000000000  0.0833333333333333  0.0833333333333333
  0.0833333333333333  0.4166666666666667  0.0833333333333333
  0.4166666666666667  0.4166666666666667  0.0833333333333333
  0.7500000000000000  0.4166666666666667  0.0833333333333333
  0.0833333333333333  0.7500000000000000  0.0833333333333333
  0.4166666666666667  0.7500000000000000  0.0833333333333333
  0.7500000000000000  0.7500000000000000  0.0833333333333333
  0.0833333333333333  0.0833333333333333  0.4166666666666667
  0.4166666666666667  0.0833333333333333  0.4166666666666667
  0.7500000000000000  0.0833333333333333  0.4166666666666667
  0.0833333333333333  0.4166666666666667  0.4166666666666667
  0.4166666666666667  0.4166666666666667  0.4166666666666667
  0.7500000000000000  0.4166666666666667  0.4166666666666667
  0.0833333333333333  0.7500000000000000  0.4166666666666667
  0.4166666666666667  0.7500000000000000  0.4166666666666667
  0.7500000000000000  0.7500000000000000  0.4166666666666667
  0.0833333333333333  0.0833333333333333  0.7500000000000000
  0.4166666666666667  0.0833333333333333  0.7500000000000000
  0.7500000000000000  0.0833333333333333  0.7500000000000000
  0.0833333333333333  0.4166666666666667  0.7500000000000000
  0.4166666666666667  0.4166666666666667  0.7500000000000000
  0.7500000000000000  0.4166666666666667  0.7500000000000000
  0.0833333333333333  0.7500000000000000  0.7500000000000000
  0.4166666666666667  0.7500000000000000  0.7500000000000000
  0.7500000000000000  0.7500000000000000  0.7500000000000000
