##########MEASURE FORCES##########################################################

#------------READ STRUCTURE-----------------------------------------------------------
units			metal
atom_style		atomic
read_data		lmp.in.x0
#------------SW Potentials------------------------------------------------------------------

pair_style      sw
pair_coeff      * * Si.sw Si

#------DUMP FORCES---------------------------------------------------------------------------
	fix			1 all nve
	dump 			force all custom 1 dump.force fx fy fz
	dump_modify 		force sort id format "%0.15g %0.15g %0.15g"
	run	1
