 &control
    calculation = 'scf'
    restart_mode='from_scratch',
    prefix='ge',
    tstress = .true.
    tprnfor = .true.
    pseudo_dir = '/home/ywg/QuantumEspresso/pseudo/',
    outdir='/home/ywg/tmp/Ge/'
 /
 &system
    ibrav=  2, celldm(1) =10.60, nat=  2, ntyp= 1,
    ecutwfc =18.0,
 /
 &electrons
    diagonalization='david'
    mixing_mode = 'plain'
    mixing_beta = 0.7
    conv_thr =  1.0d-8
 /
ATOMIC_SPECIES
 Ge  72.61  Ge.pz-bhs.UPF
ATOMIC_POSITIONS
 Ge 0.00 0.00 0.00
 Ge 0.25 0.25 0.25
K_POINTS (automatic)
 8  8  8  0  0  0
