 &input
   fildyn='ge.dyn', zasr='simple', flfrc='q2r888.fc'
 /
