 &control
    calculation = 'scf'
    restart_mode='from_scratch',
    prefix='si-001',
    tstress = .true.
    tprnfor = .true.
    pseudo_dir = '/home/ywg/QuantumEspresso/pseudo/',
    outdir='/home/ywg/tmp/Si-001/'
 /
 &system
    ibrav=  2, celldm(1) =30.60, nat=  54, ntyp= 1,
    ecutwfc =18.0,
 /
 &electrons
    diagonalization='david'
    mixing_mode = 'plain'
    mixing_beta = 0.7
    conv_thr =  1.0d-8
 /
ATOMIC_SPECIES
 Si  28.086  Si.pz-vbc.UPF
ATOMIC_POSITIONS
 Si  0.0004621612948932  0.0000000000000000  0.0000000000000000
 Si  0.3333333333333333  0.0000000000000000  0.0000000000000000
 Si  0.6666666666666666  0.0000000000000000  0.0000000000000000
 Si  0.0000000000000000  0.3333333333333333  0.0000000000000000
 Si  0.3333333333333334  0.3333333333333333  0.0000000000000000
 Si  0.6666666666666666  0.3333333333333334 -0.0000000000000000
 Si  0.0000000000000000  0.6666666666666666  0.0000000000000000
 Si  0.3333333333333333  0.6666666666666667  1.0000000000000000
 Si  0.6666666666666667  0.6666666666666666  0.0000000000000000
 Si  0.0000000000000000  0.0000000000000000  0.3333333333333333
 Si  0.3333333333333334  0.0000000000000000  0.3333333333333333
 Si  0.6666666666666666 -0.0000000000000000  0.3333333333333334
 Si  0.0000000000000000  0.3333333333333333  0.3333333333333333
 Si  0.3333333333333333  0.3333333333333333  0.3333333333333333
 Si  0.6666666666666667  0.3333333333333333  0.3333333333333333
 Si  0.0000000000000000  0.6666666666666666  0.3333333333333334
 Si  0.3333333333333333  0.6666666666666667  0.3333333333333333
 Si  0.6666666666666665  0.6666666666666666  0.3333333333333334
 Si  0.0000000000000000  0.0000000000000000  0.6666666666666666
 Si  0.3333333333333333  1.0000000000000000  0.6666666666666667
 Si  0.6666666666666667  0.0000000000000000  0.6666666666666666
 Si  0.0000000000000000  0.3333333333333334  0.6666666666666666
 Si  0.3333333333333333  0.3333333333333333  0.6666666666666667
 Si  0.6666666666666665  0.3333333333333334  0.6666666666666666
 Si  0.0000000000000000  0.6666666666666666  0.6666666666666666
 Si  0.3333333333333334  0.6666666666666666  0.6666666666666666
 Si  0.6666666666666666  0.6666666666666666  0.6666666666666666
 Si  0.0833333333333333  0.0833333333333333  0.0833333333333333
 Si  0.4166666666666667  0.0833333333333333  0.0833333333333333
 Si  0.7500000000000000  0.0833333333333333  0.0833333333333333
 Si  0.0833333333333333  0.4166666666666667  0.0833333333333333
 Si  0.4166666666666667  0.4166666666666667  0.0833333333333333
 Si  0.7500000000000000  0.4166666666666667  0.0833333333333333
 Si  0.0833333333333333  0.7500000000000000  0.0833333333333333
 Si  0.4166666666666667  0.7500000000000000  0.0833333333333333
 Si  0.7500000000000000  0.7500000000000000  0.0833333333333334
 Si  0.0833333333333333  0.0833333333333333  0.4166666666666667
 Si  0.4166666666666667  0.0833333333333333  0.4166666666666667
 Si  0.7500000000000000  0.0833333333333333  0.4166666666666667
 Si  0.0833333333333333  0.4166666666666667  0.4166666666666667
 Si  0.4166666666666667  0.4166666666666667  0.4166666666666667
 Si  0.7500000000000000  0.4166666666666667  0.4166666666666667
 Si  0.0833333333333334  0.7500000000000000  0.4166666666666667
 Si  0.4166666666666666  0.7500000000000000  0.4166666666666667
 Si  0.7500000000000001  0.7500000000000000  0.4166666666666667
 Si  0.0833333333333333  0.0833333333333333  0.7500000000000000
 Si  0.4166666666666667  0.0833333333333333  0.7500000000000000
 Si  0.7500000000000000  0.0833333333333334  0.7500000000000000
 Si  0.0833333333333334  0.4166666666666667  0.7500000000000000
 Si  0.4166666666666666  0.4166666666666667  0.7500000000000000
 Si  0.7500000000000001  0.4166666666666667  0.7500000000000000
 Si  0.0833333333333334  0.7500000000000000  0.7500000000000000
 Si  0.4166666666666667  0.7500000000000000  0.7500000000000000
 Si  0.7500000000000000  0.7500000000000000  0.7500000000000000
K_POINTS (automatic)
 2  2  2  0  0  0
